WARNING: for repeatability, setting FPU to use double precision
 -----------------------------------------------------------------------------------------------------------------------
|                                 manysat2.0    4 thread(s) on 8 core(s)                                                |
 -----------------------------------------------------------------------------------------------------------------------
 ===============================================[ Problem Statistics ]==================================================
|                                                                                                                       |
|  Number of cores:                 4                                                                                   |
|  Number of variables:          4128                                                                                   |
|  Number of clauses:           72259                                                                                   |
|  Parse time:                   0.08 s                                                                                 |
|                                                                                                                       |
 ==============================================[ Search Statistics ]====================================================
|   Thread  | Conflicts |          ORIGINAL         |          LEARNT          |  exported  / imported      |  Progress |
|    (id)   |           |    Vars  Clauses Literals |    Limit  Clauses Lit/Cl |  (clauses by restart)      |           |
 =======================================================================================================================
|         0 |       100 |    3342    67746   384248 |    24840       65      4 |           0  -           0 | 19.041 %  |
|         0 |       250 |    3312    67746   384248 |    27324      388      4 |        2402  -         178 | 19.768 %  |
|         3 |       100 |    3324    67746   384248 |    26494      472      4 |        2414  -         373 | 19.477 %  |
|         2 |       100 |    3312    67746   384248 |    26494      557      4 |        2424  -         454 | 19.768 %  |
|         1 |       100 |    3311    67746   384248 |    26494      617      4 |        2417  -         520 | 19.792 %  |
|         3 |       250 |    3312    67746   384248 |    29144      921      4 |        2429  -         671 | 19.767 %  |
|         2 |       250 |    3311    67746   384248 |    29144     1111      4 |        2424  -         858 | 19.792 %  |
|         0 |       475 |    3312    67746   384248 |    30056     1344      5 |        2417  -         909 | 19.767 %  |
|         1 |       250 |    3311    67746   384248 |    29144     1377      5 |        2417  -        1130 | 19.792 %  |
|         3 |       475 |    3311    67746   384248 |    32058     1590      5 |        2435  -        1115 | 19.792 %  |
|         2 |       475 |    3311    67746   384248 |    32058     2232      5 |        2430  -        1754 | 19.792 %  |
|         1 |       475 |    3308    67746   384248 |    32058     2459      5 |        2417  -        1988 | 19.864 %  |
|         0 |       812 |    3311    67746   384248 |    33062     2517      5 |        2423  -        1745 | 19.792 %  |
|         3 |       812 |    3308    67746   384248 |    35264     2667      5 |        2435  -        1855 | 19.864 %  |
|         2 |       812 |    3308    67746   384248 |    35264     3774      5 |        2430  -        2959 | 19.864 %  |
|         0 |      1318 |    3308    67746   384248 |    36368     4057      5 |        2423  -        2779 | 19.864 %  |
|         1 |       812 |    3308    67746   384248 |    35264     4114      5 |        2417  -        3306 | 19.864 %  |
|         3 |      1318 |    3308    67746   384248 |    38791     4437      5 |        2435  -        3119 | 19.864 %  |
|         2 |      1318 |    3308    67746   384248 |    38791     6155      5 |        2430  -        4832 | 19.864 %  |
|         1 |      1318 |    3308    67746   384248 |    38791     6425      5 |        2417  -        5111 | 19.864 %  |
|         0 |      2077 |    3308    67746   384248 |    40005     6627      5 |        2423  -        4590 | 19.864 %  |
|         3 |      2077 |    3308    67746   384248 |    42670     6806      5 |        2451  -        4729 | 19.864 %  |
|         1 |      2077 |    3308    67746   384248 |    42670     9668      5 |        2433  -        7594 | 19.864 %  |
|         2 |      2077 |    3307    67746   384248 |    42670     9743      5 |        2430  -        7661 | 19.889 %  |
|         0 |      3216 |    3308    67746   384248 |    44005    10207      6 |        2439  -        7031 | 19.864 %  |
|         3 |      3216 |    3307    67746   384248 |    46937    10816      6 |        2451  -        7600 | 19.889 %  |
|         1 |      3216 |    3307    67746   384248 |    46937    13684      6 |        2457  -       10471 | 19.889 %  |
|         2 |      3216 |    3305    67746   384248 |    46937    13891      6 |        2453  -       10671 | 19.937 %  |
|         0 |      4924 |    3307    67746   384248 |    48406    15675      6 |        2463  -       10791 | 19.889 %  |
|         3 |      4924 |    3305    67746   384248 |    51631    17159      6 |        2452  -       12237 | 19.937 %  |
|         2 |      4924 |    3305    67746   384248 |    51631    18918      7 |        2453  -       13990 | 19.937 %  |
|         1 |      4924 |    3305    67746   384248 |    51631    18889      6 |        2457  -       13968 | 19.937 %  |
|         0 |      7486 |    3305    67746   384248 |    53247    24129      7 |        2464  -       16683 | 19.937 %  |
|         3 |      7486 |    3304    62424   352811 |    56794    25406      7 |        2452  -       17945 | 19.961 %  |
|         2 |      7486 |    3305    67746   384248 |    56794    26258      7 |        2461  -       18768 | 19.937 %  |
|         1 |      7486 |    3303    62444   352896 |    56794    26784      7 |        2461  -       19324 | 19.985 %  |
|         0 |     11330 |    3300    62424   352811 |    58571    35985      8 |        2479  -       24718 | 20.058 %  |
|         3 |     11330 |    3300    62424   352811 |    62473    36258      8 |        2476  -       24956 | 20.058 %  |
|         2 |     11330 |    3300    62383   352656 |    62473    37672      8 |        2477  -       26365 | 20.058 %  |
|         1 |     11330 |    3301    62444   352896 |    62473    37819      7 |        2480  -       26515 | 20.034 %  |
|         0 |     17096 |    3300    62424   352811 |    64429    48002     13 |        2479  -       30969 | 20.058 %  |
|         1 |     17096 |    3300    62353   352543 |    68721    48633     13 |        2480  -       31570 | 20.058 %  |
|         2 |     17096 |    3300    62383   352656 |    68721    50097     15 |        2477  -       33024 | 20.058 %  |
|         3 |     17096 |    3300    62424   352811 |    68721    49978     13 |        2476  -       32910 | 20.058 %  |
|         0 |     25745 |    3300    62353   352543 |    70871    64655     15 |        2479  -       38980 | 20.058 %  |
|         2 |     25745 |    3300    62353   352543 |    75593    66684     19 |        2477  -       40964 | 20.058 %  |
|         1 |     25745 |    3300    62353   352543 |    75593    66543     20 |        2480  -       40831 | 20.058 %  |
|         3 |     25745 |    3300    62353   352543 |    75593    67177     18 |        2476  -       41467 | 20.058 %  |
|         0 |     38719 |    3300    62353   352543 |    77959    51946     21 |        2479  -       50071 | 20.058 %  |
|         2 |     38719 |    3300    62353   352543 |    83152    45488     25 |        2477  -       52971 | 20.058 %  |
|         1 |     38719 |    3300    62353   352543 |    83152    44195     32 |        2481  -       53119 | 20.058 %  |
|         3 |     38719 |    3299    62331   352461 |    83152    46640     29 |        2476  -       55282 | 20.082 %  |
|         1 |     58180 |    3299    62331   352461 |    91467    81075     28 |        2487  -       70540 | 20.082 %  |
|         0 |     58180 |    3298    62313   352394 |    85755    51468     27 |        2482  -       71087 | 20.107 %  |
|         3 |     58180 |    3299    62331   352461 |    91467    83139     28 |        2482  -       72320 | 20.082 %  |
|         2 |     58180 |    3298    62313   352394 |    91467    38755     25 |        2482  -       74549 | 20.107 %  |
|         0 |     87372 |    3298    62313   352394 |    94330    44778     29 |        2482  -       91224 | 20.107 %  |
|         3 |     87372 |    3298    62313   352394 |   100614    79324     23 |        2482  -       94861 | 20.107 %  |
|         2 |     87372 |    3298    62313   352394 |   100614    37676     38 |        2482  -      101669 | 20.107 %  |
|         1 |     87372 |    3298    62331   352461 |   100614    91706     37 |        2487  -      106499 | 20.107 %  |
|         0 |    131161 |    3298    62313   352394 |   103763    45846     38 |        2482  -      118520 | 20.107 %  |
|         2 |    131161 |    3298    62313   352394 |   110676    46000     31 |        2482  -      130437 | 20.107 %  |
|         3 |    131161 |    3298    62313   352394 |   110676    40361     30 |        2482  -      136728 | 20.107 %  |
|         1 |    131161 |    3298    62313   352394 |   110676    59554     37 |        2487  -      153440 | 20.107 %  |
|         0 |    196845 |    3298    62313   352394 |   114140    81456     54 |        2482  -      159140 | 20.107 %  |
|         2 |    196845 |    3298    62313   352394 |   121743    63298     62 |        2482  -      171699 | 20.107 %  |
|         3 |    196845 |    3298    62313   352394 |   121743    76284     42 |        2482  -      189924 | 20.107 %  |
|         1 |    196845 |    3298    62313   352394 |   121743    91679     51 |        2487  -      210092 | 20.107 %  |
|         0 |    295371 |    3298    62313   352394 |   125554    98470     66 |        2482  -      225981 | 20.107 %  |
|         2 |    295371 |    3298    62313   352394 |   133918    43556     62 |        2482  -      236751 | 20.107 %  |
|         3 |    295371 |    3298    62313   352394 |   133918    64068     44 |        2482  -      258203 | 20.107 %  |
|         1 |    295371 |    3298    62313   352394 |   133918    73833     38 |        2487  -      274039 | 20.107 %  |
|         2 |    443160 |    3298    62313   352394 |   147309    48651     63 |        2482  -      316836 | 20.107 %  |
|         0 |    443160 |    3298    62313   352394 |   138109    63131     59 |        2482  -      329795 | 20.107 %  |
|         3 |    443160 |    3298    62313   352394 |   147309    89732     51 |        2482  -      353654 | 20.107 %  |
|         1 |    443160 |    3298    62313   352394 |   147309   117985     63 |        2487  -      380760 | 20.107 %  |
|         0 |    664843 |    3298    62313   352394 |   151920   119294    196 |        2482  -      396902 | 20.107 %  |
|         1 |    664843 |    3298    62313   352394 |   162040    67781     38 |        2487  -      455133 | 20.107 %  |
|         3 |    664843 |    3298    62313   352394 |   162040   148319    125 |        2482  -      440928 | 20.107 %  |
|         2 |    664843 |    3298    62313   352394 |   162040    45562     29 |        2482  -      442246 | 20.107 %  |
|         0 |    997368 |    3298    62313   352394 |   167112   115734     91 |        2482  -      554956 | 20.107 %  |
|         3 |    997368 |    3298    62313   352394 |   178244   105233     58 |        2482  -      590492 | 20.107 %  |
|         1 |    997368 |    3298    62313   352394 |   178244   157437     78 |        2487  -      629635 | 20.107 %  |
|         2 |    997368 |    3298    62313   352394 |   178244   122934     61 |        2482  -      593476 | 20.107 %  |
|         0 |   1496156 |    3298    62313   352394 |   183823    78405     99 |        2482  -      708382 | 20.107 %  |
|         2 |   1496156 |    3298    62313   352394 |   196069   140027     86 |        2482  -      735837 | 20.107 %  |
|         3 |   1496156 |    3298    62313   352394 |   196069   158028     84 |        2482  -      754018 | 20.107 %  |
|         1 |   1496156 |    3298    62313   352394 |   196069    44354     91 |        2487  -      785233 | 20.107 %  |
|         2 |   2244338 |    3298    62313   352394 |   215676    87335     81 |        2482  -      981733 | 20.107 %  |
|         0 |   2244338 |    3298    62313   352394 |   202206   113456     89 |        2482  -      984632 | 20.107 %  |
|         3 |   2244338 |    3298    62313   352394 |   215676   121279     58 |        2482  -     1010714 | 20.107 %  |
|         1 |   2244338 |    3298    62313   352394 |   215676    80083    112 |        2487  -     1083974 | 20.107 %  |
|         3 |   3366612 |    3298    62313   352394 |   237243   196571     79 |        2482  -     1291310 | 20.107 %  |
|         2 |   3366612 |    3298    62313   352394 |   237243   213067     99 |        2482  -     1312470 | 20.107 %  |
|         0 |   3366612 |    3298    62313   352394 |   222426   191541     86 |        2482  -     1351104 | 20.107 %  |
|         1 |   3366612 |    3298    62313   352394 |   237243   211963    136 |        2487  -     1384833 | 20.107 %  |
|         3 |   5050023 |    3298    62313   352394 |   260968    45237    137 |        2482  -     1609029 | 20.107 %  |
|         2 |   5050023 |    3298    62313   352394 |   260968   168016    142 |        2482  -     1680447 | 20.107 %  |
|         0 |   5050023 |    3298    62313   352394 |   244669    79983    135 |        2482  -     1747262 | 20.107 %  |
|         1 |   5050023 |    3298    62313   352394 |   260968    62356    101 |        2487  -     1854696 | 20.107 %  |
 =======================================================================================================================
 -----------------------------------------------------------------------------------------------------------------------
| ManySAT 2.2 - all threads statistics           DETERMINISTIC MODE ? N              initial limit export clauses :  10 |
|-----------------------------------------------------------------------------------------------------------------------|
|  Thread  | winner  |   #restarts   |   decisions   |  #conflicts   |   % shared cls  |  #extra units | #extra clauses |         
|----------|---------|---------------|---------------|---------------|-----------------|---------------|----------------|
|        0 |         |            26 |      14147863 |       5995646 |            32 % |          2482 |        1964793 |
|        1 |         |            26 |      13116340 |       5907862 |            34 % |          2487 |        2041172 |
|        2 |       x |            26 |      14215193 |       6281090 |            31 % |          2482 |        1999020 |
|        3 |         |            26 |      14589555 |       6197787 |            31 % |          2482 |        1931934 |
|----------------------------------------------------|---------------|-----------------|---------------|----------------|
|                                                    |      24382385 |            32 % |          9933 |        7936919 |
 -----------------------------------------------------------------------------------------------------------------------
 DETERMINISTIC_MODE? : NO 
 CONTROL POLICY?	 : STATIC (fixed Limit Export Clauses)  
 LIMIT EXPORT CLAUSES (PAIRWISE) : [identity] x 10

  ----------------------------------------         
   winner:  more statistics           
  ----------------------------------------         
  restarts              : 26
  conflicts             : 6281090        (1946 /sec)
  decisions             : 14215193       (1.34 % random) (4405 /sec)
  propagations          : 804918208      (249403 /sec)
  conflict literals     : 1041196956     (14.45 % deleted)
  Memory used           : 1627.00 MB
  CPU time              : 3227.38 s

SATISFIABLE
